(set-option :produce-unsat-cores true)
(declare-const Flight_PHL_NYC Bool)
(declare-const Flight_PHL_BOS Bool)
(declare-const Flight_NYC_BOS Bool)
(declare-const Flight_NYC_PHL Bool)
(declare-const Flight_NYC_SYR Bool)
(declare-const Flight_BOS_SYR Bool)
(declare-const Flight_BOS_NYC Bool)
(declare-const Flight_BOS_PHL Bool)
(declare-const Flight_SYR_BOS Bool)
(declare-const Flight_SYR_NYC Bool)
(declare-const Travel_NYC_SYR Bool)
(declare-const Travel_BOS_SYR Bool)
(declare-const Travel_PHL_SYR Bool)
(assert (! (ite (xor (and Flight_PHL_NYC Travel_NYC_SYR)
         (and Flight_PHL_BOS Travel_BOS_SYR))
     (= Travel_PHL_SYR true)
     (= Travel_PHL_SYR false)) :named _Travel_PHL_SYR))
(assert (! (ite (xor Flight_NYC_SYR
             (or (and Flight_NYC_PHL Travel_PHL_SYR)
                 (and Flight_NYC_BOS Travel_BOS_SYR)))
             (= Travel_NYC_SYR true)
             (= Travel_NYC_SYR false)) :named _Travel_NYC_SYR))
(assert (! (ite (xor Flight_BOS_SYR
             (or (and Flight_BOS_NYC Travel_NYC_SYR)
                 (and Flight_BOS_PHL Travel_PHL_SYR)))
             (= Travel_BOS_SYR true)
             (= Travel_BOS_SYR false)) :named _Travel_BOS_SYR))
(assert Travel_PHL_SYR)
(assert (! (not Flight_NYC_SYR) :named _No_Flight_NYC_SYR))
(assert (! (not Flight_BOS_SYR) :named _No_Flight_BOS_SYR))
;(assert (! (not Flight_PHL_NYC) :named _No_Flight_PHL_NYC))
;(assert (! (not Flight_PHL_BOS) :named _No_Flight_PHL_BOS))
(check-sat)
(get-model)
(get-unsat-core)
